NAME: random-33-6738
TYPE: TSP
COMMENT: size=33 seed=6738
DIMENSION: 68
EDGE_WEIGHT_TYPE: EUC_2D
NODE_COORD_SECTION
+0 566 520
-0 566 520
+1 257 411
-1 20 586
+2 855 83
-2 872 917
+3 543 892
-3 486 71
+4 592 5
-4 719 506
+5 603 53
-5 946 823
+6 733 704
-6 569 482
+7 667 802
-7 535 243
+8 960 653
-8 307 637
+9 988 850
-9 283 631
+10 38 796
-10 791 796
+11 247 427
-11 279 391
+12 633 286
-12 630 868
+13 10 428
-13 244 333
+14 646 592
-14 618 438
+15 371 355
-15 896 309
+16 529 298
-16 955 787
+17 522 642
-17 593 542
+18 328 15
-18 227 269
+19 514 529
-19 893 439
+20 551 304
-20 620 952
+21 596 983
-21 370 263
+22 940 335
-22 307 13
+23 535 590
-23 622 808
+24 336 216
-24 586 966
+25 598 642
-25 853 17
+26 461 607
-26 944 352
+27 125 526
-27 703 951
+28 618 503
-28 760 493
+29 624 311
-29 79 990
+30 269 116
-30 432 127
+31 403 430
-31 1 588
+32 382 23
-32 724 99
+33 752 46
-33 493 934
PRECEDENCE_SECTION
+0 -0
+1 -1
+2 -2
+3 -3
+4 -4
+5 -5
+6 -6
+7 -7
+8 -8
+9 -9
+10 -10
+11 -11
+12 -12
+13 -13
+14 -14
+15 -15
+16 -16
+17 -17
+18 -18
+19 -19
+20 -20
+21 -21
+22 -22
+23 -23
+24 -24
+25 -25
+26 -26
+27 -27
+28 -28
+29 -29
+30 -30
+31 -31
+32 -32
+33 -33
EOF
